(set-option :auto-config false)
(set-option :produce-unsat-cores false)
(set-option :smt.mbqi.max_iterations 10000000)
(set-option :smt.relevancy 0)
(define-fun e0 () (_ BitVec 8) (_ bv0 8))
(define-fun e1 () (_ BitVec 8) (_ bv24 8))
(define-fun e2 () (_ BitVec 16) (_ bv0 16))
(define-fun e3 () (_ BitVec 8) (_ bv8 8))
(declare-fun c4 () (_ BitVec 8))
(define-fun e5 () Bool (= e0 c4))
(define-fun e6 () (_ BitVec 8) (_ bv7 8))
(define-fun e7 () (_ BitVec 8) (ite e5 e0 e6))
(define-fun e8 () (_ BitVec 8) (bvor e3 e7))
(define-fun e9 () (_ BitVec 24) (concat e2 e8))
(define-fun e10 () (_ BitVec 32) (concat e9 e0))
(define-fun e11 () (_ BitVec 8) (_ bv15 8))
(define-fun e12 () (_ BitVec 40) (concat e10 e11))
(define-fun e13 () (_ BitVec 48) (concat e12 e0))
(define-fun e14 () (_ BitVec 56) (concat e13 e0))
(define-fun e15 () (_ BitVec 64) (concat e14 e0))
(define-fun e16 () (_ BitVec 8) ((_ extract 15 8) e15))
(define-fun e17 () (_ BitVec 8) (bvand e1 e16))
(define-fun e18 () Bool (= e0 e17))
(define-fun e19 () (_ BitVec 8) ((_ extract 23 16) e15))
(define-fun e20 () (_ BitVec 8) (bvand e1 e19))
(define-fun e21 () Bool (= e0 e20))
(define-fun e22 () Bool (and e18 e21))
(define-fun e23 () (_ BitVec 8) ((_ extract 31 24) e15))
(define-fun e24 () (_ BitVec 8) (bvand e1 e23))
(define-fun e25 () Bool (= e0 e24))
(define-fun e26 () Bool (and e22 e25))
(define-fun e27 () (_ BitVec 8) ((_ extract 39 32) e15))
(define-fun e28 () (_ BitVec 8) (bvand e1 e27))
(define-fun e29 () Bool (= e0 e28))
(define-fun e30 () Bool (and e26 e29))
(define-fun e31 () (_ BitVec 8) ((_ extract 47 40) e15))
(define-fun e32 () (_ BitVec 8) (bvand e1 e31))
(define-fun e33 () Bool (= e0 e32))
(define-fun e34 () Bool (and e30 e33))
(define-fun e35 () (_ BitVec 8) ((_ extract 55 48) e15))
(define-fun e36 () (_ BitVec 8) (bvand e1 e35))
(define-fun e37 () Bool (= e0 e36))
(define-fun e38 () Bool (and e34 e37))
(define-fun e39 () (_ BitVec 8) ((_ extract 63 56) e15))
(define-fun e40 () (_ BitVec 8) (bvand e1 e39))
(define-fun e41 () Bool (= e0 e40))
(define-fun e42 () Bool (not e41))
(define-fun e43 () Bool (and e38 e42))
(define-fun e44 () Bool (= e3 e40))
(define-fun e45 () Bool (not e44))
(define-fun e46 () Bool (and e43 e45))
(define-fun e47 () Bool (not e46))
(define-fun e48 () Bool (not e43))
(define-fun e49 () Bool (or e48 e44))
(define-fun e50 () Bool (not e37))
(define-fun e51 () Bool (and e34 e50))
(define-fun e52 () Bool (= e3 e36))
(define-fun e53 () Bool (and e51 e52))
(define-fun e54 () Bool (and e42 e53))
(define-fun e55 () Bool (and e45 e54))
(define-fun e56 () Bool (not e55))
(define-fun e57 () Bool (not e54))
(define-fun e58 () Bool (or e44 e57))
(define-fun e59 () Bool (not e52))
(define-fun e60 () Bool (and e51 e59))
(define-fun e61 () Bool (not e60))
(define-fun e62 () Bool (not e51))
(define-fun e63 () Bool (or e62 e52))
(define-fun e64 () Bool (not e33))
(define-fun e65 () Bool (and e30 e64))
(define-fun e66 () Bool (= e3 e32))
(define-fun e67 () Bool (and e65 e66))
(define-fun e68 () (_ BitVec 64) (_ bv2147590144 64))
(define-fun e69 () (_ BitVec 64) (_ bv1 64))
(declare-fun c70 () (_ BitVec 64))
(define-fun e71 () (_ BitVec 64) (bvadd e69 c70))
(define-fun e72 () Bool (bvult e68 e71))
(define-fun e73 () (_ BitVec 64) (_ bv2151784448 64))
(define-fun e74 () Bool (bvult c70 e73))
(define-fun e75 () Bool (and e72 e74))
(define-fun e76 () Bool (not e75))
(define-fun e77 () Bool (and e67 e76))
(define-fun e78 () Bool (and e37 e77))
(define-fun e79 () Bool (and e42 e78))
(define-fun e80 () Bool (and e45 e79))
(define-fun e81 () Bool (not e80))
(define-fun e82 () Bool (not e79))
(define-fun e83 () Bool (or e44 e82))
(define-fun e84 () Bool (and e50 e77))
(define-fun e85 () Bool (and e52 e84))
(define-fun e86 () Bool (and e42 e85))
(define-fun e87 () Bool (and e45 e86))
(define-fun e88 () Bool (not e87))
(define-fun e89 () Bool (not e86))
(define-fun e90 () Bool (or e44 e89))
(define-fun e91 () Bool (and e59 e84))
(define-fun e92 () Bool (not e91))
(define-fun e93 () Bool (not e84))
(define-fun e94 () Bool (or e52 e93))
(define-fun e95 () Bool (not e66))
(define-fun e96 () Bool (and e65 e95))
(define-fun e97 () Bool (not e96))
(define-fun e98 () Bool (not e65))
(define-fun e99 () Bool (or e98 e66))
(define-fun e100 () Bool (not e29))
(define-fun e101 () Bool (and e26 e100))
(define-fun e102 () Bool (= e3 e28))
(define-fun e103 () Bool (and e101 e102))
(define-fun e104 () (_ BitVec 64) (_ bv2154823680 64))
(define-fun e105 () Bool (bvult e104 e71))
(define-fun e106 () Bool (bvult c70 e68))
(define-fun e107 () Bool (and e105 e106))
(define-fun e108 () Bool (not e107))
(define-fun e109 () Bool (and e103 e108))
(define-fun e110 () Bool (and e33 e109))
(define-fun e111 () Bool (and e37 e110))
(define-fun e112 () Bool (and e42 e111))
(define-fun e113 () Bool (and e45 e112))
(define-fun e114 () Bool (not e113))
(define-fun e115 () Bool (not e112))
(define-fun e116 () Bool (or e44 e115))
(define-fun e117 () Bool (and e50 e110))
(define-fun e118 () Bool (and e52 e117))
(define-fun e119 () Bool (and e42 e118))
(define-fun e120 () Bool (and e45 e119))
(define-fun e121 () Bool (not e120))
(define-fun e122 () Bool (not e119))
(define-fun e123 () Bool (or e44 e122))
(define-fun e124 () Bool (and e59 e117))
(define-fun e125 () Bool (not e124))
(define-fun e126 () Bool (not e117))
(define-fun e127 () Bool (or e52 e126))
(define-fun e128 () Bool (and e64 e109))
(define-fun e129 () Bool (and e66 e128))
(define-fun e130 () Bool (and e76 e129))
(define-fun e131 () Bool (and e37 e130))
(define-fun e132 () Bool (and e42 e131))
(define-fun e133 () Bool (and e45 e132))
(define-fun e134 () Bool (not e133))
(define-fun e135 () Bool (not e132))
(define-fun e136 () Bool (or e44 e135))
(define-fun e137 () Bool (and e50 e130))
(define-fun e138 () Bool (and e52 e137))
(define-fun e139 () Bool (and e42 e138))
(define-fun e140 () Bool (and e45 e139))
(define-fun e141 () Bool (not e140))
(define-fun e142 () Bool (not e139))
(define-fun e143 () Bool (or e44 e142))
(define-fun e144 () Bool (and e59 e137))
(define-fun e145 () Bool (not e144))
(define-fun e146 () Bool (not e137))
(define-fun e147 () Bool (or e52 e146))
(define-fun e148 () Bool (and e95 e128))
(define-fun e149 () Bool (not e148))
(define-fun e150 () Bool (not e128))
(define-fun e151 () Bool (or e66 e150))
(define-fun e152 () Bool (not e102))
(define-fun e153 () Bool (and e101 e152))
(define-fun e154 () Bool (not e153))
(define-fun e155 () Bool (not e101))
(define-fun e156 () Bool (or e155 e102))
(define-fun e157 () Bool (not e25))
(define-fun e158 () Bool (and e22 e157))
(define-fun e159 () Bool (= e3 e24))
(define-fun e160 () Bool (and e158 e159))
(define-fun e161 () (_ BitVec 64) (_ bv2153775104 64))
(define-fun e162 () Bool (bvult e161 e71))
(define-fun e163 () Bool (bvult c70 e104))
(define-fun e164 () Bool (and e162 e163))
(define-fun e165 () Bool (not e164))
(define-fun e166 () Bool (and e160 e165))
(define-fun e167 () Bool (and e29 e166))
(define-fun e168 () Bool (and e33 e167))
(define-fun e169 () Bool (and e37 e168))
(define-fun e170 () Bool (and e42 e169))
(define-fun e171 () Bool (and e45 e170))
(define-fun e172 () Bool (not e171))
(define-fun e173 () Bool (not e170))
(define-fun e174 () Bool (or e44 e173))
(define-fun e175 () Bool (and e50 e168))
(define-fun e176 () Bool (and e52 e175))
(define-fun e177 () Bool (and e42 e176))
(define-fun e178 () Bool (and e45 e177))
(define-fun e179 () Bool (not e178))
(define-fun e180 () Bool (not e177))
(define-fun e181 () Bool (or e44 e180))
(define-fun e182 () Bool (and e59 e175))
(define-fun e183 () Bool (not e182))
(define-fun e184 () Bool (not e175))
(define-fun e185 () Bool (or e52 e184))
(define-fun e186 () Bool (and e64 e167))
(define-fun e187 () Bool (and e66 e186))
(define-fun e188 () Bool (and e76 e187))
(define-fun e189 () Bool (and e37 e188))
(define-fun e190 () Bool (and e42 e189))
(define-fun e191 () Bool (and e45 e190))
(define-fun e192 () Bool (not e191))
(define-fun e193 () Bool (not e190))
(define-fun e194 () Bool (or e44 e193))
(define-fun e195 () Bool (and e50 e188))
(define-fun e196 () Bool (and e52 e195))
(define-fun e197 () Bool (and e42 e196))
(define-fun e198 () Bool (and e45 e197))
(define-fun e199 () Bool (not e198))
(define-fun e200 () Bool (not e197))
(define-fun e201 () Bool (or e44 e200))
(define-fun e202 () Bool (and e59 e195))
(define-fun e203 () Bool (not e202))
(define-fun e204 () Bool (not e195))
(define-fun e205 () Bool (or e52 e204))
(define-fun e206 () Bool (and e95 e186))
(define-fun e207 () Bool (not e206))
(define-fun e208 () Bool (not e186))
(define-fun e209 () Bool (or e66 e208))
(define-fun e210 () Bool (and e100 e166))
(define-fun e211 () Bool (and e102 e210))
(define-fun e212 () Bool (and e108 e211))
(define-fun e213 () Bool (and e33 e212))
(define-fun e214 () Bool (and e37 e213))
(define-fun e215 () Bool (and e42 e214))
(define-fun e216 () Bool (and e45 e215))
(define-fun e217 () Bool (not e216))
(define-fun e218 () Bool (not e215))
(define-fun e219 () Bool (or e44 e218))
(define-fun e220 () Bool (and e50 e213))
(define-fun e221 () Bool (and e52 e220))
(define-fun e222 () Bool (and e42 e221))
(define-fun e223 () Bool (and e45 e222))
(define-fun e224 () Bool (not e223))
(define-fun e225 () Bool (not e222))
(define-fun e226 () Bool (or e44 e225))
(define-fun e227 () Bool (and e59 e220))
(define-fun e228 () Bool (not e227))
(define-fun e229 () Bool (not e220))
(define-fun e230 () Bool (or e52 e229))
(define-fun e231 () Bool (and e64 e212))
(define-fun e232 () Bool (and e66 e231))
(define-fun e233 () Bool (and e76 e232))
(define-fun e234 () Bool (and e37 e233))
(define-fun e235 () Bool (and e42 e234))
(define-fun e236 () Bool (and e45 e235))
(define-fun e237 () Bool (not e236))
(define-fun e238 () Bool (not e235))
(define-fun e239 () Bool (or e44 e238))
(define-fun e240 () Bool (and e50 e233))
(define-fun e241 () Bool (and e52 e240))
(define-fun e242 () Bool (and e42 e241))
(define-fun e243 () Bool (and e45 e242))
(define-fun e244 () Bool (not e243))
(define-fun e245 () Bool (not e242))
(define-fun e246 () Bool (or e44 e245))
(define-fun e247 () Bool (and e59 e240))
(define-fun e248 () Bool (not e247))
(define-fun e249 () Bool (not e240))
(define-fun e250 () Bool (or e52 e249))
(define-fun e251 () Bool (and e95 e231))
(define-fun e252 () Bool (not e251))
(define-fun e253 () Bool (not e231))
(define-fun e254 () Bool (or e66 e253))
(define-fun e255 () Bool (and e152 e210))
(define-fun e256 () Bool (not e255))
(define-fun e257 () Bool (not e210))
(define-fun e258 () Bool (or e102 e257))
(define-fun e259 () Bool (not e159))
(define-fun e260 () Bool (and e158 e259))
(define-fun e261 () Bool (not e260))
(define-fun e262 () Bool (not e158))
(define-fun e263 () Bool (or e262 e159))
(define-fun e264 () Bool (not e21))
(define-fun e265 () Bool (and e18 e264))
(define-fun e266 () Bool (= e3 e20))
(define-fun e267 () Bool (and e265 e266))
(define-fun e268 () (_ BitVec 64) (_ bv0 64))
(define-fun e269 () Bool (= e268 e71))
(define-fun e270 () Bool (not e269))
(define-fun e271 () Bool (bvult c70 e161))
(define-fun e272 () Bool (and e270 e271))
(define-fun e273 () Bool (not e272))
(define-fun e274 () Bool (and e267 e273))
(define-fun e275 () Bool (and e25 e274))
(define-fun e276 () Bool (and e29 e275))
(define-fun e277 () Bool (and e33 e276))
(define-fun e278 () Bool (and e37 e277))
(define-fun e279 () Bool (and e42 e278))
(define-fun e280 () Bool (and e45 e279))
(define-fun e281 () Bool (not e280))
(define-fun e282 () Bool (not e279))
(define-fun e283 () Bool (or e44 e282))
(define-fun e284 () Bool (and e50 e277))
(define-fun e285 () Bool (and e52 e284))
(define-fun e286 () Bool (and e42 e285))
(define-fun e287 () Bool (and e45 e286))
(define-fun e288 () Bool (not e287))
(define-fun e289 () Bool (not e286))
(define-fun e290 () Bool (or e44 e289))
(define-fun e291 () Bool (and e59 e284))
(define-fun e292 () Bool (not e291))
(define-fun e293 () Bool (not e284))
(define-fun e294 () Bool (or e52 e293))
(define-fun e295 () Bool (and e64 e276))
(define-fun e296 () Bool (and e66 e295))
(define-fun e297 () Bool (and e76 e296))
(define-fun e298 () Bool (and e37 e297))
(define-fun e299 () Bool (and e42 e298))
(define-fun e300 () Bool (and e45 e299))
(define-fun e301 () Bool (not e300))
(define-fun e302 () Bool (not e299))
(define-fun e303 () Bool (or e44 e302))
(define-fun e304 () Bool (and e50 e297))
(define-fun e305 () Bool (and e52 e304))
(define-fun e306 () Bool (and e42 e305))
(define-fun e307 () Bool (and e45 e306))
(define-fun e308 () Bool (not e307))
(define-fun e309 () Bool (not e306))
(define-fun e310 () Bool (or e44 e309))
(define-fun e311 () Bool (and e59 e304))
(define-fun e312 () Bool (not e311))
(define-fun e313 () Bool (not e304))
(define-fun e314 () Bool (or e52 e313))
(define-fun e315 () Bool (and e95 e295))
(define-fun e316 () Bool (not e315))
(define-fun e317 () Bool (not e295))
(define-fun e318 () Bool (or e66 e317))
(define-fun e319 () Bool (and e100 e275))
(define-fun e320 () Bool (and e102 e319))
(define-fun e321 () Bool (and e108 e320))
(define-fun e322 () Bool (and e33 e321))
(define-fun e323 () Bool (and e37 e322))
(define-fun e324 () Bool (and e42 e323))
(define-fun e325 () Bool (and e45 e324))
(define-fun e326 () Bool (not e325))
(define-fun e327 () Bool (not e324))
(define-fun e328 () Bool (or e44 e327))
(define-fun e329 () Bool (and e50 e322))
(define-fun e330 () Bool (and e52 e329))
(define-fun e331 () Bool (and e42 e330))
(define-fun e332 () Bool (and e45 e331))
(define-fun e333 () Bool (not e332))
(define-fun e334 () Bool (not e331))
(define-fun e335 () Bool (or e44 e334))
(define-fun e336 () Bool (and e59 e329))
(define-fun e337 () Bool (not e336))
(define-fun e338 () Bool (not e329))
(define-fun e339 () Bool (or e52 e338))
(define-fun e340 () Bool (and e64 e321))
(define-fun e341 () Bool (and e66 e340))
(define-fun e342 () Bool (and e76 e341))
(define-fun e343 () Bool (and e37 e342))
(define-fun e344 () Bool (and e42 e343))
(define-fun e345 () Bool (and e45 e344))
(define-fun e346 () Bool (not e345))
(define-fun e347 () Bool (not e344))
(define-fun e348 () Bool (or e44 e347))
(define-fun e349 () Bool (and e50 e342))
(define-fun e350 () Bool (and e52 e349))
(define-fun e351 () Bool (and e42 e350))
(define-fun e352 () Bool (and e45 e351))
(define-fun e353 () Bool (not e352))
(define-fun e354 () Bool (not e351))
(define-fun e355 () Bool (or e44 e354))
(define-fun e356 () Bool (and e59 e349))
(define-fun e357 () Bool (not e356))
(define-fun e358 () Bool (not e349))
(define-fun e359 () Bool (or e52 e358))
(define-fun e360 () Bool (and e95 e340))
(define-fun e361 () Bool (not e360))
(define-fun e362 () Bool (not e340))
(define-fun e363 () Bool (or e66 e362))
(define-fun e364 () Bool (and e152 e319))
(define-fun e365 () Bool (not e364))
(define-fun e366 () Bool (not e319))
(define-fun e367 () Bool (or e102 e366))
(define-fun e368 () Bool (and e157 e274))
(define-fun e369 () Bool (and e159 e368))
(define-fun e370 () Bool (and e165 e369))
(define-fun e371 () Bool (and e29 e370))
(define-fun e372 () Bool (and e33 e371))
(define-fun e373 () Bool (and e37 e372))
(define-fun e374 () Bool (and e42 e373))
(define-fun e375 () Bool (and e45 e374))
(define-fun e376 () Bool (not e375))
(define-fun e377 () Bool (not e374))
(define-fun e378 () Bool (or e44 e377))
(define-fun e379 () Bool (and e50 e372))
(define-fun e380 () Bool (and e52 e379))
(define-fun e381 () Bool (and e42 e380))
(define-fun e382 () Bool (and e45 e381))
(define-fun e383 () Bool (not e382))
(define-fun e384 () Bool (not e381))
(define-fun e385 () Bool (or e44 e384))
(define-fun e386 () Bool (and e59 e379))
(define-fun e387 () Bool (not e386))
(define-fun e388 () Bool (not e379))
(define-fun e389 () Bool (or e52 e388))
(define-fun e390 () Bool (and e64 e371))
(define-fun e391 () Bool (and e66 e390))
(define-fun e392 () Bool (and e76 e391))
(define-fun e393 () Bool (and e37 e392))
(define-fun e394 () Bool (and e42 e393))
(define-fun e395 () Bool (and e45 e394))
(define-fun e396 () Bool (not e395))
(define-fun e397 () Bool (not e394))
(define-fun e398 () Bool (or e44 e397))
(define-fun e399 () Bool (and e50 e392))
(define-fun e400 () Bool (and e52 e399))
(define-fun e401 () Bool (and e42 e400))
(define-fun e402 () Bool (and e45 e401))
(define-fun e403 () Bool (not e402))
(define-fun e404 () Bool (not e401))
(define-fun e405 () Bool (or e44 e404))
(define-fun e406 () Bool (and e59 e399))
(define-fun e407 () Bool (not e406))
(define-fun e408 () Bool (not e399))
(define-fun e409 () Bool (or e52 e408))
(define-fun e410 () Bool (and e95 e390))
(define-fun e411 () Bool (not e410))
(define-fun e412 () Bool (not e390))
(define-fun e413 () Bool (or e66 e412))
(define-fun e414 () Bool (and e100 e370))
(define-fun e415 () Bool (and e102 e414))
(define-fun e416 () Bool (and e108 e415))
(define-fun e417 () Bool (and e33 e416))
(define-fun e418 () Bool (and e37 e417))
(define-fun e419 () Bool (and e42 e418))
(define-fun e420 () Bool (and e45 e419))
(define-fun e421 () Bool (not e420))
(define-fun e422 () Bool (not e419))
(define-fun e423 () Bool (or e44 e422))
(define-fun e424 () Bool (and e50 e417))
(define-fun e425 () Bool (and e52 e424))
(define-fun e426 () Bool (and e42 e425))
(define-fun e427 () Bool (and e45 e426))
(define-fun e428 () Bool (not e427))
(define-fun e429 () Bool (not e426))
(define-fun e430 () Bool (or e44 e429))
(define-fun e431 () Bool (and e59 e424))
(define-fun e432 () Bool (not e431))
(define-fun e433 () Bool (not e424))
(define-fun e434 () Bool (or e52 e433))
(define-fun e435 () Bool (and e64 e416))
(define-fun e436 () Bool (and e66 e435))
(define-fun e437 () Bool (and e76 e436))
(define-fun e438 () Bool (and e37 e437))
(define-fun e439 () Bool (and e42 e438))
(define-fun e440 () Bool (and e45 e439))
(define-fun e441 () Bool (not e440))
(define-fun e442 () Bool (not e439))
(define-fun e443 () Bool (or e44 e442))
(define-fun e444 () Bool (and e50 e437))
(define-fun e445 () Bool (and e52 e444))
(define-fun e446 () Bool (and e42 e445))
(define-fun e447 () Bool (and e45 e446))
(define-fun e448 () Bool (not e447))
(define-fun e449 () Bool (not e446))
(define-fun e450 () Bool (or e44 e449))
(define-fun e451 () Bool (and e59 e444))
(define-fun e452 () Bool (not e451))
(define-fun e453 () Bool (not e444))
(define-fun e454 () Bool (or e52 e453))
(define-fun e455 () Bool (and e95 e435))
(define-fun e456 () Bool (not e455))
(define-fun e457 () Bool (not e435))
(define-fun e458 () Bool (or e66 e457))
(define-fun e459 () Bool (and e152 e414))
(define-fun e460 () Bool (not e459))
(define-fun e461 () Bool (not e414))
(define-fun e462 () Bool (or e102 e461))
(define-fun e463 () Bool (and e259 e368))
(define-fun e464 () Bool (not e463))
(define-fun e465 () Bool (not e368))
(define-fun e466 () Bool (or e159 e465))
(define-fun e467 () Bool (not e266))
(define-fun e468 () Bool (and e265 e467))
(define-fun e469 () Bool (not e468))
(define-fun e470 () Bool (not e265))
(define-fun e471 () Bool (or e470 e266))
(define-fun e472 () Bool (not e18))
(define-fun e473 () Bool (= e3 e17))
(define-fun e474 () Bool (and e472 e473))
(define-fun e475 () Bool (and e21 e474))
(define-fun e476 () Bool (and e25 e475))
(define-fun e477 () Bool (and e29 e476))
(define-fun e478 () Bool (and e33 e477))
(define-fun e479 () Bool (and e37 e478))
(define-fun e480 () Bool (and e42 e479))
(define-fun e481 () Bool (and e45 e480))
(define-fun e482 () Bool (not e481))
(define-fun e483 () Bool (not e480))
(define-fun e484 () Bool (or e44 e483))
(define-fun e485 () Bool (and e50 e478))
(define-fun e486 () Bool (and e52 e485))
(define-fun e487 () Bool (and e42 e486))
(define-fun e488 () Bool (and e45 e487))
(define-fun e489 () Bool (not e488))
(define-fun e490 () Bool (not e487))
(define-fun e491 () Bool (or e44 e490))
(define-fun e492 () Bool (and e59 e485))
(define-fun e493 () Bool (not e492))
(define-fun e494 () Bool (not e485))
(define-fun e495 () Bool (or e52 e494))
(define-fun e496 () Bool (and e64 e477))
(define-fun e497 () Bool (and e66 e496))
(define-fun e498 () Bool (and e76 e497))
(define-fun e499 () Bool (and e37 e498))
(define-fun e500 () Bool (and e42 e499))
(define-fun e501 () Bool (and e45 e500))
(define-fun e502 () Bool (not e501))
(define-fun e503 () Bool (not e500))
(define-fun e504 () Bool (or e44 e503))
(define-fun e505 () Bool (and e50 e498))
(define-fun e506 () Bool (and e52 e505))
(define-fun e507 () Bool (and e42 e506))
(define-fun e508 () Bool (and e45 e507))
(define-fun e509 () Bool (not e508))
(define-fun e510 () Bool (not e507))
(define-fun e511 () Bool (or e44 e510))
(define-fun e512 () Bool (and e59 e505))
(define-fun e513 () Bool (not e512))
(define-fun e514 () Bool (not e505))
(define-fun e515 () Bool (or e52 e514))
(define-fun e516 () Bool (and e95 e496))
(define-fun e517 () Bool (not e516))
(define-fun e518 () Bool (not e496))
(define-fun e519 () Bool (or e66 e518))
(define-fun e520 () Bool (and e100 e476))
(define-fun e521 () Bool (and e102 e520))
(define-fun e522 () Bool (and e108 e521))
(define-fun e523 () Bool (and e33 e522))
(define-fun e524 () Bool (and e37 e523))
(define-fun e525 () Bool (and e42 e524))
(define-fun e526 () Bool (and e45 e525))
(define-fun e527 () Bool (not e526))
(define-fun e528 () Bool (not e525))
(define-fun e529 () Bool (or e44 e528))
(define-fun e530 () Bool (and e50 e523))
(define-fun e531 () Bool (and e52 e530))
(define-fun e532 () Bool (and e42 e531))
(define-fun e533 () Bool (and e45 e532))
(define-fun e534 () Bool (not e533))
(define-fun e535 () Bool (not e532))
(define-fun e536 () Bool (or e44 e535))
(define-fun e537 () Bool (and e59 e530))
(define-fun e538 () Bool (not e537))
(define-fun e539 () Bool (not e530))
(define-fun e540 () Bool (or e52 e539))
(define-fun e541 () Bool (and e64 e522))
(define-fun e542 () Bool (and e66 e541))
(define-fun e543 () Bool (and e76 e542))
(define-fun e544 () Bool (and e37 e543))
(define-fun e545 () Bool (and e42 e544))
(define-fun e546 () Bool (and e45 e545))
(define-fun e547 () Bool (not e546))
(define-fun e548 () Bool (not e545))
(define-fun e549 () Bool (or e44 e548))
(define-fun e550 () Bool (and e50 e543))
(define-fun e551 () Bool (and e52 e550))
(define-fun e552 () Bool (and e42 e551))
(define-fun e553 () Bool (and e45 e552))
(define-fun e554 () Bool (not e553))
(define-fun e555 () Bool (not e552))
(define-fun e556 () Bool (or e44 e555))
(define-fun e557 () Bool (and e59 e550))
(define-fun e558 () Bool (not e557))
(define-fun e559 () Bool (not e550))
(define-fun e560 () Bool (or e52 e559))
(define-fun e561 () Bool (and e95 e541))
(define-fun e562 () Bool (not e561))
(define-fun e563 () Bool (not e541))
(define-fun e564 () Bool (or e66 e563))
(define-fun e565 () Bool (and e152 e520))
(define-fun e566 () Bool (not e565))
(define-fun e567 () Bool (not e520))
(define-fun e568 () Bool (or e102 e567))
(define-fun e569 () Bool (and e157 e475))
(define-fun e570 () Bool (and e159 e569))
(define-fun e571 () Bool (and e165 e570))
(define-fun e572 () Bool (and e29 e571))
(define-fun e573 () Bool (and e33 e572))
(define-fun e574 () Bool (and e37 e573))
(define-fun e575 () Bool (and e42 e574))
(define-fun e576 () Bool (and e45 e575))
(define-fun e577 () Bool (not e576))
(define-fun e578 () Bool (not e575))
(define-fun e579 () Bool (or e44 e578))
(define-fun e580 () Bool (and e50 e573))
(define-fun e581 () Bool (and e52 e580))
(define-fun e582 () Bool (and e42 e581))
(define-fun e583 () Bool (and e45 e582))
(define-fun e584 () Bool (not e583))
(define-fun e585 () Bool (not e582))
(define-fun e586 () Bool (or e44 e585))
(define-fun e587 () Bool (and e59 e580))
(define-fun e588 () Bool (not e587))
(define-fun e589 () Bool (not e580))
(define-fun e590 () Bool (or e52 e589))
(define-fun e591 () Bool (and e64 e572))
(define-fun e592 () Bool (and e66 e591))
(define-fun e593 () Bool (and e76 e592))
(define-fun e594 () Bool (and e37 e593))
(define-fun e595 () Bool (and e42 e594))
(define-fun e596 () Bool (and e45 e595))
(define-fun e597 () Bool (not e596))
(define-fun e598 () Bool (not e595))
(define-fun e599 () Bool (or e44 e598))
(define-fun e600 () Bool (and e50 e593))
(define-fun e601 () Bool (and e52 e600))
(define-fun e602 () Bool (and e42 e601))
(define-fun e603 () Bool (and e45 e602))
(define-fun e604 () Bool (not e603))
(define-fun e605 () Bool (not e602))
(define-fun e606 () Bool (or e44 e605))
(define-fun e607 () Bool (and e59 e600))
(define-fun e608 () Bool (not e607))
(define-fun e609 () Bool (not e600))
(define-fun e610 () Bool (or e52 e609))
(define-fun e611 () Bool (and e95 e591))
(define-fun e612 () Bool (not e611))
(define-fun e613 () Bool (not e591))
(define-fun e614 () Bool (or e66 e613))
(define-fun e615 () Bool (and e100 e571))
(define-fun e616 () Bool (and e102 e615))
(define-fun e617 () Bool (and e108 e616))
(define-fun e618 () Bool (and e33 e617))
(define-fun e619 () Bool (and e37 e618))
(define-fun e620 () Bool (and e42 e619))
(define-fun e621 () Bool (and e45 e620))
(define-fun e622 () Bool (not e621))
(define-fun e623 () Bool (not e620))
(define-fun e624 () Bool (or e44 e623))
(define-fun e625 () Bool (and e50 e618))
(define-fun e626 () Bool (and e52 e625))
(define-fun e627 () Bool (and e42 e626))
(define-fun e628 () Bool (and e45 e627))
(define-fun e629 () Bool (not e628))
(define-fun e630 () Bool (not e627))
(define-fun e631 () Bool (or e44 e630))
(define-fun e632 () Bool (and e59 e625))
(define-fun e633 () Bool (not e632))
(define-fun e634 () Bool (not e625))
(define-fun e635 () Bool (or e52 e634))
(define-fun e636 () Bool (and e64 e617))
(define-fun e637 () Bool (and e66 e636))
(define-fun e638 () Bool (and e76 e637))
(define-fun e639 () Bool (and e37 e638))
(define-fun e640 () Bool (and e42 e639))
(define-fun e641 () Bool (and e45 e640))
(define-fun e642 () Bool (not e641))
(define-fun e643 () Bool (not e640))
(define-fun e644 () Bool (or e44 e643))
(define-fun e645 () Bool (and e50 e638))
(define-fun e646 () Bool (and e52 e645))
(define-fun e647 () Bool (and e42 e646))
(define-fun e648 () Bool (and e45 e647))
(define-fun e649 () Bool (not e648))
(define-fun e650 () Bool (not e647))
(define-fun e651 () Bool (or e44 e650))
(define-fun e652 () Bool (and e59 e645))
(define-fun e653 () Bool (not e652))
(define-fun e654 () Bool (not e645))
(define-fun e655 () Bool (or e52 e654))
(define-fun e656 () Bool (and e95 e636))
(define-fun e657 () Bool (not e656))
(define-fun e658 () Bool (not e636))
(define-fun e659 () Bool (or e66 e658))
(define-fun e660 () Bool (and e152 e615))
(define-fun e661 () Bool (not e660))
(define-fun e662 () Bool (not e615))
(define-fun e663 () Bool (or e102 e662))
(define-fun e664 () Bool (and e259 e569))
(define-fun e665 () Bool (not e664))
(define-fun e666 () Bool (not e569))
(define-fun e667 () Bool (or e159 e666))
(define-fun e668 () Bool (and e264 e474))
(define-fun e669 () Bool (and e266 e668))
(define-fun e670 () Bool (and e273 e669))
(define-fun e671 () Bool (and e25 e670))
(define-fun e672 () Bool (and e29 e671))
(define-fun e673 () Bool (and e33 e672))
(define-fun e674 () Bool (and e37 e673))
(define-fun e675 () Bool (and e42 e674))
(define-fun e676 () Bool (and e45 e675))
(define-fun e677 () Bool (not e676))
(define-fun e678 () Bool (not e675))
(define-fun e679 () Bool (or e44 e678))
(define-fun e680 () Bool (and e50 e673))
(define-fun e681 () Bool (and e52 e680))
(define-fun e682 () Bool (and e42 e681))
(define-fun e683 () Bool (and e45 e682))
(define-fun e684 () Bool (not e683))
(define-fun e685 () Bool (not e682))
(define-fun e686 () Bool (or e44 e685))
(define-fun e687 () Bool (and e59 e680))
(define-fun e688 () Bool (not e687))
(define-fun e689 () Bool (not e680))
(define-fun e690 () Bool (or e52 e689))
(define-fun e691 () Bool (and e64 e672))
(define-fun e692 () Bool (and e66 e691))
(define-fun e693 () Bool (and e76 e692))
(define-fun e694 () Bool (and e37 e693))
(define-fun e695 () Bool (and e42 e694))
(define-fun e696 () Bool (and e45 e695))
(define-fun e697 () Bool (not e696))
(define-fun e698 () Bool (not e695))
(define-fun e699 () Bool (or e44 e698))
(define-fun e700 () Bool (and e50 e693))
(define-fun e701 () Bool (and e52 e700))
(define-fun e702 () Bool (and e42 e701))
(define-fun e703 () Bool (and e45 e702))
(define-fun e704 () Bool (not e703))
(define-fun e705 () Bool (not e702))
(define-fun e706 () Bool (or e44 e705))
(define-fun e707 () Bool (and e59 e700))
(define-fun e708 () Bool (not e707))
(define-fun e709 () Bool (not e700))
(define-fun e710 () Bool (or e52 e709))
(define-fun e711 () Bool (and e95 e691))
(define-fun e712 () Bool (not e711))
(define-fun e713 () Bool (not e691))
(define-fun e714 () Bool (or e66 e713))
(define-fun e715 () Bool (and e100 e671))
(define-fun e716 () Bool (and e102 e715))
(define-fun e717 () Bool (and e108 e716))
(define-fun e718 () Bool (and e33 e717))
(define-fun e719 () Bool (and e37 e718))
(define-fun e720 () Bool (and e42 e719))
(define-fun e721 () Bool (and e45 e720))
(define-fun e722 () Bool (not e721))
(define-fun e723 () Bool (not e720))
(define-fun e724 () Bool (or e44 e723))
(define-fun e725 () Bool (and e50 e718))
(define-fun e726 () Bool (and e52 e725))
(define-fun e727 () Bool (and e42 e726))
(define-fun e728 () Bool (and e45 e727))
(define-fun e729 () Bool (not e728))
(define-fun e730 () Bool (not e727))
(define-fun e731 () Bool (or e44 e730))
(define-fun e732 () Bool (and e59 e725))
(define-fun e733 () Bool (not e732))
(define-fun e734 () Bool (not e725))
(define-fun e735 () Bool (or e52 e734))
(define-fun e736 () Bool (and e64 e717))
(define-fun e737 () Bool (and e66 e736))
(define-fun e738 () Bool (and e76 e737))
(define-fun e739 () Bool (and e37 e738))
(define-fun e740 () Bool (and e42 e739))
(define-fun e741 () Bool (and e45 e740))
(define-fun e742 () Bool (not e741))
(define-fun e743 () Bool (not e740))
(define-fun e744 () Bool (or e44 e743))
(define-fun e745 () Bool (and e50 e738))
(define-fun e746 () Bool (and e52 e745))
(define-fun e747 () Bool (and e42 e746))
(define-fun e748 () Bool (and e45 e747))
(define-fun e749 () Bool (not e748))
(define-fun e750 () Bool (not e747))
(define-fun e751 () Bool (or e44 e750))
(define-fun e752 () Bool (and e59 e745))
(define-fun e753 () Bool (not e752))
(define-fun e754 () Bool (not e745))
(define-fun e755 () Bool (or e52 e754))
(define-fun e756 () Bool (and e95 e736))
(define-fun e757 () Bool (not e756))
(define-fun e758 () Bool (not e736))
(define-fun e759 () Bool (or e66 e758))
(define-fun e760 () Bool (and e152 e715))
(define-fun e761 () Bool (not e760))
(define-fun e762 () Bool (not e715))
(define-fun e763 () Bool (or e102 e762))
(define-fun e764 () Bool (and e157 e670))
(define-fun e765 () Bool (and e159 e764))
(define-fun e766 () Bool (and e165 e765))
(define-fun e767 () Bool (and e29 e766))
(define-fun e768 () Bool (and e33 e767))
(define-fun e769 () Bool (and e37 e768))
(define-fun e770 () Bool (and e42 e769))
(define-fun e771 () Bool (and e45 e770))
(define-fun e772 () Bool (not e771))
(define-fun e773 () Bool (not e770))
(define-fun e774 () Bool (or e44 e773))
(define-fun e775 () Bool (and e50 e768))
(define-fun e776 () Bool (and e52 e775))
(define-fun e777 () Bool (and e42 e776))
(define-fun e778 () Bool (and e45 e777))
(define-fun e779 () Bool (not e778))
(define-fun e780 () Bool (not e777))
(define-fun e781 () Bool (or e44 e780))
(define-fun e782 () Bool (and e59 e775))
(define-fun e783 () Bool (not e782))
(define-fun e784 () Bool (not e775))
(define-fun e785 () Bool (or e52 e784))
(define-fun e786 () Bool (and e64 e767))
(define-fun e787 () Bool (and e66 e786))
(define-fun e788 () Bool (and e76 e787))
(define-fun e789 () Bool (and e37 e788))
(define-fun e790 () Bool (and e42 e789))
(define-fun e791 () Bool (and e45 e790))
(define-fun e792 () Bool (not e791))
(define-fun e793 () Bool (not e790))
(define-fun e794 () Bool (or e44 e793))
(define-fun e795 () Bool (and e50 e788))
(define-fun e796 () Bool (and e52 e795))
(define-fun e797 () Bool (and e42 e796))
(define-fun e798 () Bool (and e45 e797))
(define-fun e799 () Bool (not e798))
(define-fun e800 () Bool (not e797))
(define-fun e801 () Bool (or e44 e800))
(define-fun e802 () Bool (and e59 e795))
(define-fun e803 () Bool (not e802))
(define-fun e804 () Bool (not e795))
(define-fun e805 () Bool (or e52 e804))
(define-fun e806 () Bool (and e95 e786))
(define-fun e807 () Bool (not e806))
(define-fun e808 () Bool (not e786))
(define-fun e809 () Bool (or e66 e808))
(define-fun e810 () Bool (and e100 e766))
(define-fun e811 () Bool (and e102 e810))
(define-fun e812 () Bool (and e108 e811))
(define-fun e813 () Bool (and e33 e812))
(define-fun e814 () Bool (and e37 e813))
(define-fun e815 () Bool (and e42 e814))
(define-fun e816 () Bool (and e45 e815))
(define-fun e817 () Bool (not e816))
(define-fun e818 () Bool (not e815))
(define-fun e819 () Bool (or e44 e818))
(define-fun e820 () Bool (and e50 e813))
(define-fun e821 () Bool (and e52 e820))
(define-fun e822 () Bool (and e42 e821))
(define-fun e823 () Bool (and e45 e822))
(define-fun e824 () Bool (not e823))
(define-fun e825 () Bool (not e822))
(define-fun e826 () Bool (or e44 e825))
(define-fun e827 () Bool (and e59 e820))
(define-fun e828 () Bool (not e827))
(define-fun e829 () Bool (not e820))
(define-fun e830 () Bool (or e52 e829))
(define-fun e831 () Bool (and e64 e812))
(define-fun e832 () Bool (and e66 e831))
(define-fun e833 () Bool (and e76 e832))
(define-fun e834 () Bool (and e37 e833))
(define-fun e835 () Bool (and e42 e834))
(define-fun e836 () Bool (and e45 e835))
(define-fun e837 () Bool (not e836))
(define-fun e838 () Bool (not e835))
(define-fun e839 () Bool (or e44 e838))
(define-fun e840 () Bool (and e50 e833))
(define-fun e841 () Bool (and e52 e840))
(define-fun e842 () Bool (and e42 e841))
(define-fun e843 () Bool (and e45 e842))
(define-fun e844 () Bool (not e843))
(define-fun e845 () Bool (not e842))
(define-fun e846 () Bool (or e44 e845))
(define-fun e847 () Bool (and e59 e840))
(define-fun e848 () Bool (not e847))
(define-fun e849 () Bool (not e840))
(define-fun e850 () Bool (or e52 e849))
(define-fun e851 () Bool (and e95 e831))
(define-fun e852 () Bool (not e851))
(define-fun e853 () Bool (not e831))
(define-fun e854 () Bool (or e66 e853))
(define-fun e855 () Bool (and e152 e810))
(define-fun e856 () Bool (not e855))
(define-fun e857 () Bool (not e810))
(define-fun e858 () Bool (or e102 e857))
(define-fun e859 () Bool (and e259 e764))
(define-fun e860 () Bool (not e859))
(define-fun e861 () Bool (not e764))
(define-fun e862 () Bool (or e159 e861))
(define-fun e863 () Bool (and e467 e668))
(define-fun e864 () Bool (not e863))
(define-fun e865 () Bool (not e668))
(define-fun e866 () Bool (or e266 e865))
(define-fun e867 () Bool (not e473))
(define-fun e868 () Bool (and e472 e867))
(define-fun e869 () Bool (not e868))
(define-fun e870 () Bool (or e18 e473))
(define-fun e871 () Bool (and e47 e49 e56 e58 e61 e63 e81 e83 e88 e90 e92 e94 e97 e99 e114 e116 e121 e123 e125 e127 e134 e136 e141 e143 e145 e147 e149 e151 e154 e156 e172 e174 e179 e181 e183 e185 e192 e194 e199 e201 e203 e205 e207 e209 e217 e219 e224 e226 e228 e230 e237 e239 e244 e246 e248 e250 e252 e254 e256 e258 e261 e263 e281 e283 e288 e290 e292 e294 e301 e303 e308 e310 e312 e314 e316 e318 e326 e328 e333 e335 e337 e339 e346 e348 e353 e355 e357 e359 e361 e363 e365 e367 e376 e378 e383 e385 e387 e389 e396 e398 e403 e405 e407 e409 e411 e413 e421 e423 e428 e430 e432 e434 e441 e443 e448 e450 e452 e454 e456 e458 e460 e462 e464 e466 e469 e471 e482 e484 e489 e491 e493 e495 e502 e504 e509 e511 e513 e515 e517 e519 e527 e529 e534 e536 e538 e540 e547 e549 e554 e556 e558 e560 e562 e564 e566 e568 e577 e579 e584 e586 e588 e590 e597 e599 e604 e606 e608 e610 e612 e614 e622 e624 e629 e631 e633 e635 e642 e644 e649 e651 e653 e655 e657 e659 e661 e663 e665 e667 e677 e679 e684 e686 e688 e690 e697 e699 e704 e706 e708 e710 e712 e714 e722 e724 e729 e731 e733 e735 e742 e744 e749 e751 e753 e755 e757 e759 e761 e763 e772 e774 e779 e781 e783 e785 e792 e794 e799 e801 e803 e805 e807 e809 e817 e819 e824 e826 e828 e830 e837 e839 e844 e846 e848 e850 e852 e854 e856 e858 e860 e862 e864 e866 e869 e870))
(define-fun e872 () Bool (not e871))
(assert e872)
(check-sat)
